c colouring generated by benchmark framework
p edge 500 12458
v 1 6
v 2 9
v 3 8
v 4 9
v 5 6
v 6 5
v 7 15
v 8 14
v 9 8
v 10 14
v 11 14
v 12 16
v 13 0
v 14 7
v 15 2
v 16 7
v 17 7
v 18 5
v 19 15
v 20 14
v 21 5
v 22 5
v 23 5
v 24 13
v 25 16
v 26 10
v 27 11
v 28 12
v 29 11
v 30 16
v 31 10
v 32 12
v 33 3
v 34 5
v 35 1
v 36 4
v 37 0
v 38 5
v 39 7
v 40 2
v 41 10
v 42 0
v 43 13
v 44 11
v 45 12
v 46 11
v 47 3
v 48 15
v 49 0
v 50 4
v 51 15
v 52 2
v 53 15
v 54 2
v 55 3
v 56 2
v 57 4
v 58 0
v 59 4
v 60 9
v 61 7
v 62 1
v 63 0
v 64 13
v 65 2
v 66 16
v 67 1
v 68 0
v 69 4
v 70 4
v 71 16
v 72 7
v 73 12
v 74 11
v 75 2
v 76 1
v 77 4
v 78 17
v 79 17
v 80 6
v 81 6
v 82 4
v 83 14
v 84 13
v 85 2
v 86 8
v 87 1
v 88 13
v 89 5
v 90 9
v 91 7
v 92 10
v 93 9
v 94 13
v 95 16
v 96 6
v 97 2
v 98 11
v 99 16
v 100 9
v 101 14
v 102 2
v 103 12
v 104 14
v 105 10
v 106 10
v 107 12
v 108 0
v 109 12
v 110 17
v 111 14
v 112 16
v 113 9
v 114 15
v 115 11
v 116 5
v 117 15
v 118 8
v 119 7
v 120 5
v 121 10
v 122 7
v 123 14
v 124 13
v 125 10
v 126 15
v 127 4
v 128 11
v 129 8
v 130 16
v 131 14
v 132 16
v 133 17
v 134 13
v 135 6
v 136 11
v 137 5
v 138 17
v 139 10
v 140 5
v 141 14
v 142 1
v 143 16
v 144 5
v 145 0
v 146 15
v 147 10
v 148 6
v 149 4
v 150 12
v 151 3
v 152 11
v 153 10
v 154 0
v 155 3
v 156 6
v 157 4
v 158 10
v 159 15
v 160 17
v 161 2
v 162 6
v 163 12
v 164 16
v 165 3
v 166 12
v 167 0
v 168 6
v 169 15
v 170 3
v 171 0
v 172 7
v 173 15
v 174 9
v 175 14
v 176 8
v 177 4
v 178 16
v 179 5
v 180 12
v 181 4
v 182 4
v 183 5
v 184 1
v 185 12
v 186 2
v 187 15
v 188 1
v 189 0
v 190 0
v 191 0
v 192 13
v 193 11
v 194 12
v 195 6
v 196 9
v 197 13
v 198 13
v 199 10
v 200 4
v 201 0
v 202 6
v 203 4
v 204 1
v 205 6
v 206 0
v 207 11
v 208 6
v 209 10
v 210 17
v 211 2
v 212 4
v 213 10
v 214 13
v 215 4
v 216 2
v 217 8
v 218 8
v 219 10
v 220 1
v 221 4
v 222 4
v 223 12
v 224 8
v 225 3
v 226 13
v 227 5
v 228 10
v 229 9
v 230 10
v 231 8
v 232 4
v 233 2
v 234 10
v 235 7
v 236 5
v 237 14
v 238 9
v 239 8
v 240 13
v 241 3
v 242 15
v 243 9
v 244 9
v 245 13
v 246 2
v 247 2
v 248 4
v 249 7
v 250 1
v 251 7
v 252 11
v 253 5
v 254 14
v 255 17
v 256 4
v 257 14
v 258 14
v 259 16
v 260 3
v 261 13
v 262 7
v 263 15
v 264 5
v 265 10
v 266 15
v 267 2
v 268 3
v 269 10
v 270 15
v 271 9
v 272 17
v 273 10
v 274 8
v 275 1
v 276 7
v 277 13
v 278 15
v 279 8
v 280 17
v 281 4
v 282 10
v 283 1
v 284 15
v 285 16
v 286 7
v 287 11
v 288 1
v 289 12
v 290 9
v 291 11
v 292 10
v 293 14
v 294 8
v 295 8
v 296 6
v 297 8
v 298 14
v 299 11
v 300 14
v 301 6
v 302 11
v 303 1
v 304 1
v 305 8
v 306 6
v 307 5
v 308 4
v 309 12
v 310 3
v 311 17
v 312 5
v 313 0
v 314 6
v 315 13
v 316 16
v 317 6
v 318 6
v 319 3
v 320 5
v 321 11
v 322 10
v 323 2
v 324 6
v 325 11
v 326 0
v 327 13
v 328 8
v 329 7
v 330 3
v 331 12
v 332 15
v 333 10
v 334 7
v 335 15
v 336 2
v 337 2
v 338 8
v 339 0
v 340 5
v 341 10
v 342 12
v 343 2
v 344 12
v 345 11
v 346 9
v 347 10
v 348 2
v 349 4
v 350 6
v 351 3
v 352 5
v 353 8
v 354 9
v 355 2
v 356 9
v 357 4
v 358 1
v 359 0
v 360 6
v 361 1
v 362 13
v 363 9
v 364 0
v 365 8
v 366 6
v 367 6
v 368 1
v 369 3
v 370 12
v 371 6
v 372 1
v 373 17
v 374 12
v 375 13
v 376 7
v 377 13
v 378 15
v 379 9
v 380 3
v 381 4
v 382 6
v 383 15
v 384 0
v 385 17
v 386 1
v 387 9
v 388 12
v 389 3
v 390 12
v 391 3
v 392 12
v 393 8
v 394 2
v 395 1
v 396 5
v 397 8
v 398 14
v 399 7
v 400 6
v 401 6
v 402 9
v 403 11
v 404 7
v 405 1
v 406 3
v 407 13
v 408 1
v 409 0
v 410 4
v 411 6
v 412 14
v 413 3
v 414 12
v 415 9
v 416 3
v 417 13
v 418 6
v 419 12
v 420 0
v 421 12
v 422 0
v 423 8
v 424 12
v 425 0
v 426 12
v 427 0
v 428 10
v 429 13
v 430 5
v 431 5
v 432 8
v 433 6
v 434 5
v 435 8
v 436 0
v 437 8
v 438 3
v 439 11
v 440 11
v 441 5
v 442 13
v 443 8
v 444 5
v 445 16
v 446 3
v 447 3
v 448 9
v 449 1
v 450 6
v 451 8
v 452 4
v 453 2
v 454 5
v 455 7
v 456 6
v 457 7
v 458 8
v 459 16
v 460 3
v 461 13
v 462 14
v 463 4
v 464 4
v 465 16
v 466 8
v 467 17
v 468 17
v 469 10
v 470 16
v 471 1
v 472 3
v 473 2
v 474 9
v 475 4
v 476 17
v 477 7
v 478 2
v 479 10
v 480 0
v 481 10
v 482 11
v 483 16
v 484 3
v 485 1
v 486 17
v 487 1
v 488 3
v 489 10
v 490 6
v 491 7
v 492 8
v 493 13
v 494 11
v 495 12
v 496 1
v 497 9
v 498 7
v 499 8
v 500 9
